(set-info :smt-lib-version 2.6)
(set-logic QF_UF)
(set-info :source |
Generated by: David Deharbe, CLEARSY
Generated on: 2019-09-09
Generator: bxml;pog;pog2smt (Atelier B)
Application: Event-B
Target solver: CVC4, Z3
|)
(set-info :license "https://creativecommons.org/licenses/by-nc/4.0/")
(set-info :category "industrial")
(set-info :status sat)
; Prelude
(declare-sort U 0)
(declare-fun |*i| (U U) U)
(declare-fun |+i| (U U) U)
(declare-fun |-i| (U U) U)
(declare-fun idiv (U U) U)
(declare-fun |*r| (U U) U)
(declare-fun |+r| (U U) U)
(declare-fun |-r| (U U) U)
(declare-fun rdiv (U U) U)
(declare-fun modulo (U U) U)
(declare-fun |<i| (U U) Bool)
(declare-fun |<=i| (U U) Bool)
(declare-fun |>i| (U U) Bool)
(declare-fun |>=i| (U U) Bool)
(declare-fun |<r| (U U) Bool)
(declare-fun |<=r| (U U) Bool)
(declare-fun |>r| (U U) Bool)
(declare-fun |>=r| (U U) Bool)
(declare-fun iuminus (U) U)
(declare-fun ruminus (U) U)
(declare-fun TRUE () U)
(declare-fun FALSE () U)
(assert (not (= TRUE FALSE)))
(declare-fun empty () U)
(declare-fun bool (Bool) U)
(declare-fun BOOL () U)
(declare-fun INT () U)
(declare-fun INTEGER () U)
(declare-fun NAT () U)
(declare-fun NAT1 () U)
(declare-fun NATURAL () U)
(declare-fun NATURAL1 () U)
(declare-fun FLOAT () U)
(declare-fun MaxInt () U)
(declare-fun MinInt () U)
(declare-fun |STRING| () U)
(declare-fun REAL () U)
(declare-fun set_prod (U U) U)
(declare-fun set_diff (U U) U)
(declare-fun mapplet (U U) U)
(declare-fun |**i| (U U) U)
(declare-fun |**r| (U U) U)
(declare-fun |+->| (U U) U)
(declare-fun |+->>| (U U) U)
(declare-fun |-->| (U U) U)
(declare-fun |-->>| (U U) U)
(declare-fun |<->| (U U) U)
(declare-fun |>+>| (U U) U)
(declare-fun |>->| (U U) U)
(declare-fun |>+>>| (U U) U)
(declare-fun |>->>| (U U) U)
(declare-fun |->| (U U) U)
(declare-fun interval (U U) U)
(declare-fun composition (U U) U)
(declare-fun binary_inter (U U) U)
(declare-fun restriction_head (U U) U)
(declare-fun semicolon (U U) U)
(declare-fun |<+| (U U) U)
(declare-fun |<-| (U U) U)
(declare-fun domain_subtraction (U U) U)
(declare-fun domain_restriction (U U) U)
(declare-fun |><| (U U) U)
(declare-fun parallel_product (U U) U)
(declare-fun binary_union (U U) U)
(declare-fun restriction_tail (U U) U)
(declare-fun concatenate (U U) U)
(declare-fun range_restriction (U U) U)
(declare-fun range_subtraction (U U) U)
(declare-fun image (U U) U)
(declare-fun apply (U U) U)
(declare-fun prj1 (U U) U)
(declare-fun prj2 (U U) U)
(declare-fun iterate (U U) U)
(declare-fun |const| (U U) U)
(declare-fun rank (U U) U)
(declare-fun father (U U) U)
(declare-fun subtree (U U) U)
(declare-fun arity (U U) U)
(declare-fun |+f| (U U) U)
(declare-fun |-f| (U U) U)
(declare-fun |*f| (U U) U)
(declare-fun |fdiv| (U U) U)
(declare-fun tbin (U U U) U)
(declare-fun son (U U U) U)
(declare-fun mem (U U) Bool)
(declare-fun subset (U U) Bool)
(declare-fun strict_subset (U U) Bool)
(declare-fun |<=f| (U U) Bool)
(declare-fun |<f| (U U) Bool)
(declare-fun |>=f| (U U) Bool)
(declare-fun |>f| (U U) Bool)
(declare-fun imax (U) U)
(declare-fun imin (U) U)
(declare-fun rmax (U) U)
(declare-fun rmin (U) U)
(declare-fun card (U) U)
(declare-fun dom (U) U)
(declare-fun ran (U) U)
(declare-fun POW (U) U)
(declare-fun POW1 (U) U)
(declare-fun FIN (U) U)
(declare-fun FIN1 (U) U)
(declare-fun union (U) U)
(declare-fun inter (U) U)
(declare-fun seq (U) U)
(declare-fun seq1 (U) U)
(declare-fun iseq (U) U)
(declare-fun iseq1 (U) U)
(declare-fun inverse (U) U)
(declare-fun size (U) U)
(declare-fun perm (U) U)
(declare-fun first (U) U)
(declare-fun last (U) U)
(declare-fun id (U) U)
(declare-fun closure (U) U)
(declare-fun closure1 (U) U)
(declare-fun tail (U) U)
(declare-fun front (U) U)
(declare-fun reverse (U) U)
(declare-fun rev (U) U)
(declare-fun conc (U) U)
(declare-fun succ (U) U)
(declare-fun pred (U) U)
(declare-fun rel (U) U)
(declare-fun fnc (U) U)
(declare-fun real (U) U)
(declare-fun floor (U) U)
(declare-fun ceiling (U) U)
(declare-fun tree (U) U)
(declare-fun btree (U) U)
(declare-fun top (U) U)
(declare-fun sons (U) U)
(declare-fun prefix (U) U)
(declare-fun postfix (U) U)
(declare-fun sizet (U) U)
(declare-fun mirror (U) U)
(declare-fun left (U) U)
(declare-fun right (U) U)
(declare-fun infix (U) U)
(declare-fun ubin (U) U)
(declare-fun SEQ (U) U)
(declare-fun SET (U) U)
; Opaque formulas
(declare-fun e0 () U)
(declare-fun e14 () U)
(declare-fun e37 () U)
(declare-fun e12 () U)
(declare-fun e55 () U)
(declare-fun e57 () U)
(declare-fun e16 () U)
(declare-fun e45 () U)
(declare-fun e49 () U)
(declare-fun e32 () U)
(declare-fun e34 () U)
(declare-fun e51 () U)
(declare-fun e47 () U)
(declare-fun e63 () U)
(declare-fun e41 () U)
(declare-fun e43 () U)
(declare-fun e28 () U)
(declare-fun g_s0_1 () U)
(declare-fun g_s1_2 () U)
(declare-fun g_s10_11 () U)
(declare-fun g_s11_13 () U)
(declare-fun g_s12_15 () U)
(declare-fun g_s13_17 () U)
(declare-fun g_s14_18 () U)
(declare-fun g_s15_19 () U)
(declare-fun g_s16_20 () U)
(declare-fun g_s17_21 () U)
(declare-fun g_s18_22 () U)
(declare-fun g_s19_23 () U)
(declare-fun g_s2_3 () U)
(declare-fun g_s20_24 () U)
(declare-fun g_s21_25 () U)
(declare-fun g_s22_26 () U)
(declare-fun g_s23_27 () U)
(declare-fun g_s24_29 () U)
(declare-fun g_s25_30 () U)
(declare-fun g_s26_31 () U)
(declare-fun g_s27_33 () U)
(declare-fun g_s28_35 () U)
(declare-fun g_s29_36 () U)
(declare-fun g_s3_4 () U)
(declare-fun g_s30_38 () U)
(declare-fun g_s31_39 () U)
(declare-fun g_s32_40 () U)
(declare-fun g_s33_42 () U)
(declare-fun g_s34_44 () U)
(declare-fun g_s35_46 () U)
(declare-fun g_s36_48 () U)
(declare-fun g_s37_50 () U)
(declare-fun g_s38_52 () U)
(declare-fun g_s39_53 () U)
(declare-fun g_s4_5 () U)
(declare-fun g_s40_54 () U)
(declare-fun g_s41_56 () U)
(declare-fun g_s42_58 () U)
(declare-fun g_s43_59 () U)
(declare-fun g_s44_60 () U)
(declare-fun g_s45_61 () U)
(declare-fun g_s46_62 () U)
(declare-fun g_s47_64 () U)
(declare-fun g_s48_65 () U)
(declare-fun g_s49_66 () U)
(declare-fun g_s5_6 () U)
(declare-fun g_s50_67 () U)
(declare-fun g_s51_68 () U)
(declare-fun g_s52_69 () U)
(declare-fun g_s53_70 () U)
(declare-fun g_s54_71 () U)
(declare-fun g_s55_72 () U)
(declare-fun g_s56_73 () U)
(declare-fun g_s57_74 () U)
(declare-fun g_s58_75 () U)
(declare-fun g_s59_76 () U)
(declare-fun g_s6_7 () U)
(declare-fun g_s60_77 () U)
(declare-fun g_s61_78 () U)
(declare-fun g_s62_79 () U)
(declare-fun g_s63_80 () U)
(declare-fun g_s7_8 () U)
(declare-fun g_s8_9 () U)
(declare-fun g_s9_10 () U)
; Defines
(define-fun |def_B definitions| () Bool (and (= NAT (interval e0 MaxInt)) (= INT (interval MinInt MaxInt))))
(define-fun |def_ctx| () Bool (and (mem g_s0_1 INTEGER) (= g_s0_1 e0) (mem g_s1_2 INTEGER) (= g_s1_2 e0) (mem g_s2_3 INTEGER) (= g_s2_3 e0) (mem g_s3_4 INTEGER) (= g_s3_4 e0) (mem g_s4_5 INTEGER) (= g_s4_5 e0) (mem g_s5_6 INTEGER) (= g_s5_6 e0) (mem g_s6_7 INTEGER) (= g_s6_7 e0) (mem g_s7_8 INTEGER) (= g_s7_8 e0) (mem g_s8_9 INTEGER) (= g_s8_9 e0) (mem g_s9_10 INTEGER) (= g_s9_10 e0) (mem g_s10_11 INTEGER) (= g_s10_11 e12) (mem g_s11_13 INTEGER) (= g_s11_13 e14) (mem g_s12_15 INTEGER) (= g_s12_15 e16) (mem g_s13_17 INTEGER) (= g_s13_17 e0) (mem g_s14_18 INTEGER) (= g_s14_18 e14) (mem g_s15_19 INTEGER) (= g_s15_19 e12) (mem g_s16_20 INTEGER) (= g_s16_20 e14) (mem g_s17_21 INTEGER) (= g_s17_21 e14) (mem g_s18_22 INTEGER) (= g_s18_22 e14) (mem g_s19_23 INTEGER) (= g_s19_23 e14) (mem g_s20_24 INTEGER) (= g_s20_24 e14) (mem g_s21_25 INTEGER) (= g_s21_25 e14) (mem g_s22_26 INTEGER) (= g_s22_26 e14) (mem g_s23_27 INTEGER) (= g_s23_27 e28) (mem g_s24_29 INTEGER) (= g_s24_29 e28) (mem g_s25_30 INTEGER) (= g_s25_30 e16) (mem g_s26_31 INTEGER) (= g_s26_31 e32) (mem g_s27_33 INTEGER) (= g_s27_33 e34) (mem g_s28_35 INTEGER) (= g_s28_35 e34) (mem g_s29_36 INTEGER) (= g_s29_36 e37) (mem g_s30_38 INTEGER) (= g_s30_38 e12) (mem g_s31_39 INTEGER) (= g_s31_39 e34) (mem g_s32_40 INTEGER) (= g_s32_40 e41) (mem g_s33_42 INTEGER) (= g_s33_42 e43) (mem g_s34_44 INTEGER) (= g_s34_44 e45) (mem g_s35_46 INTEGER) (= g_s35_46 e47) (mem g_s36_48 INTEGER) (= g_s36_48 e49) (mem g_s37_50 INTEGER) (= g_s37_50 e51) (mem g_s38_52 INTEGER) (= g_s38_52 e47) (mem g_s39_53 INTEGER) (= g_s39_53 e37) (mem g_s40_54 INTEGER) (= g_s40_54 e55) (mem g_s41_56 INTEGER) (= g_s41_56 e57) (mem g_s42_58 INTEGER) (= g_s42_58 e16) (mem g_s43_59 INTEGER) (= g_s43_59 e12) (mem g_s44_60 INTEGER) (= g_s44_60 e16) (mem g_s45_61 INTEGER) (= g_s45_61 e37) (mem g_s46_62 INTEGER) (= g_s46_62 e63) (mem g_s47_64 INTEGER) (= g_s47_64 e63) (mem g_s48_65 INTEGER) (= g_s48_65 e37) (mem g_s49_66 INTEGER) (= g_s49_66 e63) (mem g_s50_67 INTEGER) (= g_s50_67 e55) (mem g_s51_68 INTEGER) (= g_s51_68 e55)))
(define-fun |def_seext| () Bool true)
(define-fun |def_mchcst| () Bool true)
(define-fun |def_aprp| () Bool (and (= g_s52_69 (SET (mapplet g_s55_72 (mapplet g_s54_71 g_s53_70)))) (= g_s56_73 INTEGER) (= g_s57_74 INTEGER) (= g_s58_75 NATURAL) (= g_s59_76 NATURAL) (mem g_s60_77 NAT1) (= g_s61_78 (interval e14 g_s60_77)) (= g_s62_79 NATURAL) (= g_s63_80 INTEGER)))
(define-fun |def_abs| () Bool true)
(define-fun |def_inv| () Bool true)
(define-fun |def_ass| () Bool true)
(define-fun |def_sets| () Bool true)
(define-fun |def_imlprp| () Bool (and (= g_s56_73 INTEGER) (= g_s57_74 INTEGER) (= g_s58_75 NATURAL) (= g_s59_76 NATURAL) (= g_s60_77 g_s37_50) (= g_s61_78 (interval e14 g_s37_50)) (= g_s62_79 NATURAL) (= g_s63_80 INTEGER)))
(define-fun |def_imprp| () Bool true)
(define-fun |def_imext| () Bool true)
; PO group 0 
(assert |def_B definitions|)
(assert |def_ctx|)
(assert |def_imprp|)
; PO 1 in group 0
(assert (not (mem g_s37_50 NAT1)))
(check-sat)
(exit)